centroides = 0;
nNurses = 256;
hours = 96;
demand = [27 47 17 49 30 28 62 59 26 26 50 43 28 26 11 7 56 9 32 16 6 13 37 25 45 32 55 2 17 57 22 32 41 56 31 9 25 45 62 24 22 44 22 13 46 21 45 42 42 36 3 3 18 16 51 27 31 9 19 47 37 38 42 60 5 36 16 22 62 62 36 18 38 54 6 14 6 60 39 6 22 30 56 15 0 16 47 20 28 50 20 43 58 19 51 50];
minHours = 3;
maxHours = 54;
maxConsec = 14;
maxPresence = 84;